letting n =  10
letting blocks =  [[1, 6], [2, 1], [2, 8], [2, 9], [3, 3], [3, 7], [3, 10], [4, 5], [5, 2], [5, 3], [5, 5], [5, 6], [6, 1], [6, 8], [8, 1], [8, 2], [8, 5], [8, 7], [9, 4], [9, 6], [9, 7], [9, 9], [10, 3], [10, 5]]
